certificates/rado_a11_c91_N24.cnf
c Rad2 upper bound instance: x1 + 11*x2 - x3 = 91, interval [1,24]
p cnf 24 104
1 9 0
-1 -9 0
1 10 20 0
-1 -10 -20 0
2 9 10 0
-2 -9 -10 0
2 10 21 0
-2 -10 -21 0
3 9 11 0
-3 -9 -11 0
3 10 22 0
-3 -10 -22 0
1 4 8 0
-1 -4 -8 0
4 9 12 0
-4 -9 -12 0
4 10 23 0
-4 -10 -23 0
2 5 8 0
-2 -5 -8 0
5 9 13 0
-5 -9 -13 0
5 10 24 0
-5 -10 -24 0
3 6 8 0
-3 -6 -8 0
6 9 14 0
-6 -9 -14 0
4 7 8 0
-4 -7 -8 0
7 9 15 0
-7 -9 -15 0
5 8 0
-5 -8 0
8 9 16 0
-8 -9 -16 0
6 8 9 0
-6 -8 -9 0
9 17 0
-9 -17 0
7 8 10 0
-7 -8 -10 0
9 10 18 0
-9 -10 -18 0
8 11 0
-8 -11 0
9 11 19 0
-9 -11 -19 0
8 9 12 0
-8 -9 -12 0
9 12 20 0
-9 -12 -20 0
8 10 13 0
-8 -10 -13 0
9 13 21 0
-9 -13 -21 0
8 11 14 0
-8 -11 -14 0
9 14 22 0
-9 -14 -22 0
1 7 15 0
-1 -7 -15 0
8 12 15 0
-8 -12 -15 0
9 15 23 0
-9 -15 -23 0
2 7 16 0
-2 -7 -16 0
8 13 16 0
-8 -13 -16 0
9 16 24 0
-9 -16 -24 0
3 7 17 0
-3 -7 -17 0
8 14 17 0
-8 -14 -17 0
4 7 18 0
-4 -7 -18 0
8 15 18 0
-8 -15 -18 0
5 7 19 0
-5 -7 -19 0
8 16 19 0
-8 -16 -19 0
6 7 20 0
-6 -7 -20 0
8 17 20 0
-8 -17 -20 0
7 21 0
-7 -21 0
8 18 21 0
-8 -18 -21 0
7 8 22 0
-7 -8 -22 0
8 19 22 0
-8 -19 -22 0
7 9 23 0
-7 -9 -23 0
8 20 23 0
-8 -20 -23 0
7 10 24 0
-7 -10 -24 0
8 21 24 0
-8 -21 -24 0
