certificates/rado_a11_c91_N24.drat
-21 -24 0
9 -24 0
-7 -24 0
d -7 -10 -24 0
-24 0
8 0
-5 0
-11 0
10 0
-7 0
-13 0
21 0
19 0
9 0
-18 0
-2 0
-22 0
-16 0
-1 0
-17 0
-6 0
-12 0
4 0
0
